p wcnf 197 231 232 
1 116 -120 0 
1 -17 26 0 
1 26 -121 0 
1 -93 36 0 
1 -70 -45 0 
1 188 -68 0 
1 186 4 0 
1 -160 28 0 
1 40 191 0 
1 -169 -77 0 
1 -193 -53 0 
1 183 35 0 
1 151 -109 0 
1 65 28 0 
1 -121 -29 0 
1 168 144 0 
1 -34 -172 0 
1 58 62 0 
1 -68 -89 0 
1 149 103 0 
1 -79 -33 0 
1 -37 -19 0 
1 -178 -71 0 
1 125 -163 0 
1 164 -55 0 
1 -168 -104 0 
1 125 86 0 
1 79 15 0 
1 -48 1 0 
1 -184 23 0 
1 -65 176 0 
1 -156 113 0 
1 -192 -193 0 
1 -94 108 0 
1 -162 181 0 
1 14 -109 0 
1 82 182 0 
1 -180 -33 0 
1 -108 67 0 
1 16 176 0 
1 63 37 0 
1 68 -88 0 
1 -140 -166 0 
1 150 -20 0 
1 17 -176 0 
1 47 71 0 
1 7 -79 0 
1 -185 159 0 
1 88 7 0 
1 -98 3 0 
1 172 128 0 
1 -48 -60 0 
1 159 91 0 
1 -73 87 0 
1 134 32 0 
1 112 -49 0 
1 173 -193 0 
1 -175 8 0 
1 -95 -77 0 
1 -64 80 0 
1 -88 56 0 
1 71 109 0 
1 3 -61 0 
1 166 -39 0 
1 -46 -119 0 
1 88 83 0 
1 -55 26 0 
1 10 125 0 
1 190 76 0 
1 -99 23 0 
1 -1 140 0 
1 -85 -102 0 
1 -79 -13 0 
1 84 99 0 
1 -5 -30 0 
1 -161 80 0 
1 -178 -114 0 
1 113 -183 0 
1 -151 -18 0 
1 -170 24 0 
1 143 36 0 
1 -182 87 0 
1 73 39 0 
1 -30 122 0 
1 -101 -32 0 
1 -99 -28 0 
1 -150 -154 0 
1 -65 -167 0 
1 99 16 0 
1 -116 -47 0 
1 184 -79 0 
1 194 -173 0 
1 -89 181 0 
1 -74 -53 0 
1 -52 104 0 
1 10 169 0 
1 -143 105 0 
1 -196 191 0 
1 -184 -31 0 
1 112 90 0 
1 -129 11 0 
1 42 -192 0 
1 80 125 0 
1 106 -1 0 
1 -101 -131 0 
1 63 85 0 
1 55 4 0 
1 114 -182 0 
1 122 -75 0 
1 -7 -15 0 
1 -160 -145 0 
1 -182 152 0 
1 -126 86 0 
1 166 28 0 
1 -104 -169 0 
1 -144 -104 0 
1 163 184 0 
1 -79 -45 0 
1 34 44 0 
1 -59 164 0 
1 66 7 0 
1 -168 192 0 
1 -179 117 0 
1 22 19 0 
1 38 -93 0 
1 106 -177 0 
1 -77 -13 0 
1 57 188 0 
1 -23 -85 0 
1 -74 188 0 
1 124 70 0 
1 -10 -51 0 
1 -89 111 0 
1 72 -6 0 
1 -152 -102 0 
1 -153 -166 0 
1 137 149 0 
1 83 25 0 
1 32 120 0 
1 43 173 0 
1 35 95 0 
1 48 -157 0 
1 -62 -148 0 
1 164 115 0 
1 -92 150 0 
1 144 158 0 
1 153 90 0 
1 -72 -126 0 
1 -48 -3 0 
1 175 75 0 
1 -28 -124 0 
1 171 180 0 
1 -82 -59 0 
1 179 -7 0 
1 144 -167 0 
1 -130 -101 0 
1 -137 -111 0 
1 23 -78 0 
1 28 -132 0 
1 -26 -119 0 
1 -188 192 0 
1 -121 -102 0 
1 -95 143 0 
1 -147 -182 0 
1 193 -134 0 
1 38 -177 0 
1 40 152 0 
1 -81 82 0 
1 13 -132 0 
1 183 72 0 
1 133 144 0 
1 -43 29 0 
1 -104 24 0 
1 -40 178 0 
1 -83 -156 0 
1 100 -169 0 
1 -146 -34 0 
1 -169 -110 0 
1 -53 187 0 
1 119 -134 0 
1 175 -185 0 
1 125 -161 0 
1 25 176 0 
1 9 -187 0 
1 109 51 0 
1 185 -74 0 
1 8 24 0 
1 152 150 0 
1 120 -106 0 
1 -60 92 0 
1 13 -56 0 
1 -142 -7 0 
1 -81 10 0 
1 -115 -14 0 
1 -41 -45 0 
1 -143 -76 0 
1 120 -130 0 
1 9 14 0 
1 195 -106 0 
1 -50 99 0 
1 154 -187 0 
1 -161 -197 0 
1 -51 -196 0 
1 -71 163 0 
1 101 -43 0 
1 196 144 0 
1 -132 76 0 
1 104 57 0 
1 -54 80 0 
1 -8 -142 0 
1 94 -46 0 
1 185 -134 0 
1 -16 104 0 
1 -27 -101 0 
1 31 46 0 
1 -21 180 0 
1 -119 -97 0 
1 120 -193 0 
1 -101 -178 0 
1 16 98 0 
1 196 112 0 
1 3 -66 0 
1 79 -188 0 
1 -99 -89 0 
1 -91 -163 0 
1 -123 99 0 
1 142 -130 0 
1 154 99 0 
1 -87 -190 0 
1 -160 -161 0 
1 -143 86 0 
